L = 29;
N = 24;
W = [ 3, 3, 3, 3, 3, 3, 3, 3, 3, 3, 3, 3, 4, 4, 4, 4, 4, 4, 4, 4, 4, 5, 5, 5 ];
H = [ 3, 4, 5, 6, 7, 8, 9, 10, 11, 15, 18, 20, 3, 4, 5, 6, 7, 9, 15, 18, 20, 4, 8, 17 ];
H_LB = 29;
H_UB = 36;